; benchmark generated from python API
(set-info :status unknown)
(declare-fun x_month () Int)
(declare-fun x_day () Int)
(declare-fun x_year () Int)
(declare-fun y_month () Int)
(declare-fun y_day () Int)
(declare-fun y_year () Int)
(assert
 (>= x_month 1))
(assert
 (<= x_month 12))
(assert
 (>= x_day 1))
(assert
 (<= x_day 31))
(assert
 (let (($x1167 (<= x_day 28)))
 (let (($x3025 (<= x_day 29)))
 (let (($x3056 (= (mod x_year 400) 0)))
 (let (($x1729 (= (mod x_year 4) 0)))
 (let (($x2919 (ite (or (and $x1729 (and (distinct (mod x_year 100) 0) true)) $x3056) $x3025 $x1167)))
 (let (($x3011 (= x_month 2)))
 (ite $x3011 $x2919 true))))))))
(assert
 (let (($x2354 (<= x_day 30)))
 (let (($x2644 (or (= x_month 4) (= x_month 6) (= x_month 9) (= x_month 11))))
 (ite $x2644 $x2354 true))))
(assert
 (>= y_month 1))
(assert
 (<= y_month 12))
(assert
 (>= y_day 1))
(assert
 (<= y_day 31))
(assert
 (let (($x2930 (<= y_day 28)))
 (let (($x3007 (<= y_day 29)))
 (let (($x1950 (= (mod y_year 400) 0)))
 (let (($x3013 (= (mod y_year 4) 0)))
 (let (($x3010 (ite (or (and $x3013 (and (distinct (mod y_year 100) 0) true)) $x1950) $x3007 $x2930)))
 (let (($x3023 (= y_month 2)))
 (ite $x3023 $x3010 true))))))))
(assert
 (let (($x2940 (<= y_day 30)))
 (let (($x2236 (or (= y_month 4) (= y_month 6) (= y_month 9) (= y_month 11))))
 (ite $x2236 $x2940 true))))
(assert
 (let (($x1985 (= x_day 31)))
 (let (($x2894 (= x_month 1)))
 (let (($x1484 (= x_year 2020)))
 (and $x1484 $x2894 $x1985)))))
(assert
 (let (($x2958 (= y_day 31)))
 (let (($x2828 (= y_month 1)))
 (let (($x2761 (= y_year 2019)))
 (and $x2761 $x2828 $x2958)))))
(assert
 (let ((?x2918 (+ (mod (- (+ x_month (+ (* 0 12) 1)) 1) 12) 1)))
 (let ((?x801 (ite (or (= ?x2918 4) (= ?x2918 6) (= ?x2918 9) (= ?x2918 11)) 30 31)))
 (let ((?x1948 (+ 0 (div (- (+ x_month (+ (* 0 12) 1)) 1) 12))))
 (let ((?x2922 (+ x_year ?x1948)))
 (let (($x2793 (or (and (= (mod ?x2922 4) 0) (and (distinct (mod ?x2922 100) 0) true)) (= (mod ?x2922 400) 0))))
 (let ((?x1267 (ite (= ?x2918 2) (ite $x2793 29 28) ?x801)))
 (let ((?x2721 (ite (< x_day 1) 1 (ite (> x_day ?x1267) ?x1267 x_day))))
 (let ((?x1116 (ite (< ?x2721 1) 1 (ite (> ?x2721 ?x1267) ?x1267 ?x2721))))
 (let ((?x2246 (ite (= 2 ?x2918) (ite $x2793 31 31) (ite (= 1 ?x2918) (ite $x2793 0 0) 0))))
 (let ((?x2947 (ite (= 4 ?x2918) (ite $x2793 91 90) (ite (= 3 ?x2918) (ite $x2793 60 59) ?x2246))))
 (let ((?x2224 (ite (= 6 ?x2918) (ite $x2793 152 151) (ite (= 5 ?x2918) (ite $x2793 121 120) ?x2947))))
 (let ((?x2995 (ite (= 8 ?x2918) (ite $x2793 213 212) (ite (= 7 ?x2918) (ite $x2793 182 181) ?x2224))))
 (let ((?x2997 (ite (= 10 ?x2918) (ite $x2793 274 273) (ite (= 9 ?x2918) (ite $x2793 244 243) ?x2995))))
 (let ((?x278 (ite (= 12 ?x2918) (ite $x2793 335 334) (ite (= 11 ?x2918) (ite $x2793 305 304) ?x2997))))
 (let ((?x1901 (- (+ (* 365 (- ?x2922 1)) (div (- ?x2922 1) 4)) (div (- ?x2922 1) 100))))
 (let ((?x2261 (- (+ (+ (+ ?x1901 (div (- ?x2922 1) 400)) ?x278) (- ?x1116 1)) 730179)))
 (let ((?x2946 (+ (+ ?x2261 0) 730179)))
 (let ((?x2241 (mod ?x2946 146097)))
 (let ((?x2729 (div ?x2241 36524)))
 (let ((?x488 (ite (<= 4 ?x2729) 3 ?x2729)))
 (let ((?x2079 (- ?x2241 (* ?x488 36524))))
 (let ((?x2877 (mod ?x2079 1461)))
 (let ((?x1110 (div ?x2877 365)))
 (let ((?x2375 (ite (<= 4 ?x1110) 3 ?x1110)))
 (let ((?x2550 (+ (+ (* (div ?x2946 146097) 400) (* ?x488 100)) (* (div ?x2079 1461) 4))))
 (let ((?x2843 (+ (+ ?x2550 ?x2375) 1)))
 (let (($x2284 (or (and (= (mod ?x2843 4) 0) (and (distinct (mod ?x2843 100) 0) true)) (= (mod ?x2843 400) 0))))
 (let ((?x341 (- ?x2877 (* ?x2375 365))))
 (let ((?x1513 (ite $x2284 31 31)))
 (let (($x2783 (>= ?x341 ?x1513)))
 (let ((?x1285 (ite $x2783 (+ (- ?x341 ?x1513) 1) (+ (- ?x341 (ite $x2284 0 0)) 1))))
 (let ((?x2968 (ite $x2284 60 59)))
 (let (($x1300 (>= ?x341 ?x2968)))
 (let ((?x2967 (ite $x2284 91 90)))
 (let (($x1881 (>= ?x341 ?x2967)))
 (let ((?x2105 (ite $x1881 (+ (- ?x341 ?x2967) 1) (ite $x1300 (+ (- ?x341 ?x2968) 1) ?x1285))))
 (let ((?x2831 (ite $x2284 121 120)))
 (let (($x2829 (>= ?x341 ?x2831)))
 (let ((?x2862 (ite $x2284 152 151)))
 (let (($x2421 (>= ?x341 ?x2862)))
 (let ((?x1643 (ite $x2421 (+ (- ?x341 ?x2862) 1) (ite $x2829 (+ (- ?x341 ?x2831) 1) ?x2105))))
 (let ((?x2845 (ite $x2284 182 181)))
 (let (($x1127 (>= ?x341 ?x2845)))
 (let ((?x2812 (ite $x2284 213 212)))
 (let (($x2076 (>= ?x341 ?x2812)))
 (let ((?x1846 (ite $x2076 (+ (- ?x341 ?x2812) 1) (ite $x1127 (+ (- ?x341 ?x2845) 1) ?x1643))))
 (let ((?x2450 (ite $x2284 244 243)))
 (let (($x2810 (>= ?x341 ?x2450)))
 (let ((?x2825 (ite $x2284 274 273)))
 (let (($x2901 (>= ?x341 ?x2825)))
 (let ((?x2594 (ite $x2901 (+ (- ?x341 ?x2825) 1) (ite $x2810 (+ (- ?x341 ?x2450) 1) ?x1846))))
 (let ((?x2789 (ite $x2284 305 304)))
 (let (($x1815 (>= ?x341 ?x2789)))
 (let ((?x2779 (ite $x2284 335 334)))
 (let (($x2965 (>= ?x341 ?x2779)))
 (let ((?x2797 (ite $x2965 (+ (- ?x341 ?x2779) 1) (ite $x1815 (+ (- ?x341 ?x2789) 1) ?x2594))))
 (let (($x1067 (= 0 0)))
 (let ((?x2436 (ite $x2829 5 (ite $x1881 4 (ite $x1300 3 (ite $x2783 2 1))))))
 (let ((?x1566 (ite $x2810 9 (ite $x2076 8 (ite $x1127 7 (ite $x2421 6 ?x2436))))))
 (let (($x1125 (= (ite $x1067 ?x2918 (ite $x2965 12 (ite $x1815 11 (ite $x2901 10 ?x1566)))) 2)))
 (and (= (ite $x1067 ?x2922 ?x2843) 2020) $x1125 (= (ite $x1067 ?x1116 ?x2797) 29)))))))))))))))))))))))))))))))))))))))))))))))))))))))))))))))
(assert
 (let ((?x943 (+ (mod (- (+ y_month (+ (* 0 12) 1)) 1) 12) 1)))
 (let ((?x2686 (ite (or (= ?x943 4) (= ?x943 6) (= ?x943 9) (= ?x943 11)) 30 31)))
 (let ((?x1691 (+ 0 (div (- (+ y_month (+ (* 0 12) 1)) 1) 12))))
 (let ((?x1579 (+ y_year ?x1691)))
 (let (($x2803 (or (and (= (mod ?x1579 4) 0) (and (distinct (mod ?x1579 100) 0) true)) (= (mod ?x1579 400) 0))))
 (let ((?x2349 (ite (= ?x943 2) (ite $x2803 29 28) ?x2686)))
 (let ((?x2470 (ite (< y_day 1) 1 (ite (> y_day ?x2349) ?x2349 y_day))))
 (let ((?x2476 (ite (< ?x2470 1) 1 (ite (> ?x2470 ?x2349) ?x2349 ?x2470))))
 (let ((?x3468 (ite (= 2 ?x943) (ite $x2803 31 31) (ite (= 1 ?x943) (ite $x2803 0 0) 0))))
 (let ((?x4064 (ite (= 4 ?x943) (ite $x2803 91 90) (ite (= 3 ?x943) (ite $x2803 60 59) ?x3468))))
 (let ((?x4694 (ite (= 6 ?x943) (ite $x2803 152 151) (ite (= 5 ?x943) (ite $x2803 121 120) ?x4064))))
 (let ((?x2358 (ite (= 8 ?x943) (ite $x2803 213 212) (ite (= 7 ?x943) (ite $x2803 182 181) ?x4694))))
 (let ((?x3497 (ite (= 10 ?x943) (ite $x2803 274 273) (ite (= 9 ?x943) (ite $x2803 244 243) ?x2358))))
 (let ((?x4036 (ite (= 12 ?x943) (ite $x2803 335 334) (ite (= 11 ?x943) (ite $x2803 305 304) ?x3497))))
 (let ((?x4023 (- (+ (* 365 (- ?x1579 1)) (div (- ?x1579 1) 4)) (div (- ?x1579 1) 100))))
 (let ((?x4474 (- (+ (+ (+ ?x4023 (div (- ?x1579 1) 400)) ?x4036) (- ?x2476 1)) 730179)))
 (let ((?x2055 (+ (+ ?x4474 0) 730179)))
 (let ((?x1716 (mod ?x2055 146097)))
 (let ((?x3459 (div ?x1716 36524)))
 (let ((?x3109 (ite (<= 4 ?x3459) 3 ?x3459)))
 (let ((?x4824 (- ?x1716 (* ?x3109 36524))))
 (let ((?x4352 (mod ?x4824 1461)))
 (let ((?x2613 (div ?x4352 365)))
 (let ((?x4518 (ite (<= 4 ?x2613) 3 ?x2613)))
 (let ((?x4830 (+ (+ (* (div ?x2055 146097) 400) (* ?x3109 100)) (* (div ?x4824 1461) 4))))
 (let ((?x3751 (+ (+ ?x4830 ?x4518) 1)))
 (let (($x3377 (or (and (= (mod ?x3751 4) 0) (and (distinct (mod ?x3751 100) 0) true)) (= (mod ?x3751 400) 0))))
 (let ((?x3777 (- ?x4352 (* ?x4518 365))))
 (let ((?x3151 (ite $x3377 31 31)))
 (let (($x3597 (>= ?x3777 ?x3151)))
 (let ((?x3907 (ite $x3597 (+ (- ?x3777 ?x3151) 1) (+ (- ?x3777 (ite $x3377 0 0)) 1))))
 (let ((?x1537 (ite $x3377 60 59)))
 (let (($x3600 (>= ?x3777 ?x1537)))
 (let ((?x1251 (ite $x3377 91 90)))
 (let (($x4333 (>= ?x3777 ?x1251)))
 (let ((?x1556 (ite $x4333 (+ (- ?x3777 ?x1251) 1) (ite $x3600 (+ (- ?x3777 ?x1537) 1) ?x3907))))
 (let ((?x1109 (ite $x3377 121 120)))
 (let (($x3775 (>= ?x3777 ?x1109)))
 (let ((?x4004 (ite $x3377 152 151)))
 (let (($x4630 (>= ?x3777 ?x4004)))
 (let ((?x1142 (ite $x4630 (+ (- ?x3777 ?x4004) 1) (ite $x3775 (+ (- ?x3777 ?x1109) 1) ?x1556))))
 (let ((?x3650 (ite $x3377 182 181)))
 (let (($x3596 (>= ?x3777 ?x3650)))
 (let ((?x1879 (ite $x3377 213 212)))
 (let (($x2943 (>= ?x3777 ?x1879)))
 (let ((?x1473 (ite $x2943 (+ (- ?x3777 ?x1879) 1) (ite $x3596 (+ (- ?x3777 ?x3650) 1) ?x1142))))
 (let ((?x1477 (ite $x3377 244 243)))
 (let (($x1888 (>= ?x3777 ?x1477)))
 (let ((?x1205 (ite $x3377 274 273)))
 (let (($x3149 (>= ?x3777 ?x1205)))
 (let ((?x4425 (ite $x3149 (+ (- ?x3777 ?x1205) 1) (ite $x1888 (+ (- ?x3777 ?x1477) 1) ?x1473))))
 (let ((?x4241 (ite $x3377 305 304)))
 (let (($x3378 (>= ?x3777 ?x4241)))
 (let ((?x4242 (ite $x3377 335 334)))
 (let (($x3466 (>= ?x3777 ?x4242)))
 (let ((?x3467 (ite $x3466 (+ (- ?x3777 ?x4242) 1) (ite $x3378 (+ (- ?x3777 ?x4241) 1) ?x4425))))
 (let (($x1067 (= 0 0)))
 (let ((?x3776 (ite $x3775 5 (ite $x4333 4 (ite $x3600 3 (ite $x3597 2 1))))))
 (let ((?x3999 (ite $x1888 9 (ite $x2943 8 (ite $x3596 7 (ite $x4630 6 ?x3776))))))
 (let (($x2383 (= (ite $x1067 ?x943 (ite $x3466 12 (ite $x3378 11 (ite $x3149 10 ?x3999)))) 2)))
 (and (= (ite $x1067 ?x1579 ?x3751) 2019) $x2383 (= (ite $x1067 ?x2476 ?x3467) 28)))))))))))))))))))))))))))))))))))))))))))))))))))))))))))))))
(assert
 (let (($x1985 (= x_day 31)))
 (let (($x2894 (= x_month 1)))
 (let (($x1484 (= x_year 2020)))
 (and $x1484 $x2894 $x1985)))))
(assert
 (let (($x2958 (= y_day 31)))
(let (($x2828 (= y_month 1)))
(let (($x2761 (= y_year 2019)))
(and $x2761 $x2828 $x2958)))))
(check-sat)
